c Generated map
c Size: 12 * 12, weights in range: 1 to 10, walls: False, with ratio 0.0
c dim 5 of 5
c
p sp 144 264
c graph contains 144 nodes and 264 arcs
c
a 1 13 8
a 13 1 8
a 1 2 8
a 2 1 8
a 2 14 9
a 14 2 9
a 2 3 7
a 3 2 7
a 3 15 4
a 15 3 4
a 3 4 9
a 4 3 9
a 4 16 1
a 16 4 1
a 4 5 9
a 5 4 9
a 5 17 8
a 17 5 8
a 5 6 8
a 6 5 8
a 6 18 1
a 18 6 1
a 6 7 10
a 7 6 10
a 7 19 9
a 19 7 9
a 7 8 1
a 8 7 1
a 8 20 2
a 20 8 2
a 8 9 9
a 9 8 9
a 9 21 1
a 21 9 1
a 9 10 8
a 10 9 8
a 10 22 10
a 22 10 10
a 10 11 3
a 11 10 3
a 11 23 8
a 23 11 8
a 11 12 3
a 12 11 3
a 12 24 3
a 24 12 3
a 13 25 9
a 25 13 9
a 13 14 7
a 14 13 7
a 14 26 2
a 26 14 2
a 14 15 6
a 15 14 6
a 15 27 8
a 27 15 8
a 15 16 6
a 16 15 6
a 16 28 7
a 28 16 7
a 16 17 4
a 17 16 4
a 17 29 8
a 29 17 8
a 17 18 8
a 18 17 8
a 18 30 10
a 30 18 10
a 18 19 5
a 19 18 5
a 19 31 2
a 31 19 2
a 19 20 6
a 20 19 6
a 20 32 9
a 32 20 9
a 20 21 7
a 21 20 7
a 21 33 5
a 33 21 5
a 21 22 5
a 22 21 5
a 22 34 3
a 34 22 3
a 22 23 9
a 23 22 9
a 23 35 7
a 35 23 7
a 23 24 6
a 24 23 6
a 24 36 4
a 36 24 4
a 25 37 4
a 37 25 4
a 25 26 4
a 26 25 4
a 26 38 10
a 38 26 10
a 26 27 4
a 27 26 4
a 27 39 1
a 39 27 1
a 27 28 5
a 28 27 5
a 28 40 4
a 40 28 4
a 28 29 7
a 29 28 7
a 29 41 9
a 41 29 9
a 29 30 3
a 30 29 3
a 30 42 5
a 42 30 5
a 30 31 4
a 31 30 4
a 31 43 6
a 43 31 6
a 31 32 8
a 32 31 8
a 32 44 4
a 44 32 4
a 32 33 10
a 33 32 10
a 33 45 1
a 45 33 1
a 33 34 4
a 34 33 4
a 34 46 8
a 46 34 8
a 34 35 4
a 35 34 4
a 35 47 6
a 47 35 6
a 35 36 1
a 36 35 1
a 36 48 2
a 48 36 2
a 37 49 4
a 49 37 4
a 37 38 6
a 38 37 6
a 38 50 4
a 50 38 4
a 38 39 9
a 39 38 9
a 39 51 1
a 51 39 1
a 39 40 9
a 40 39 9
a 40 52 3
a 52 40 3
a 40 41 10
a 41 40 10
a 41 53 8
a 53 41 8
a 41 42 7
a 42 41 7
a 42 54 5
a 54 42 5
a 42 43 1
a 43 42 1
a 43 55 10
a 55 43 10
a 43 44 10
a 44 43 10
a 44 56 6
a 56 44 6
a 44 45 6
a 45 44 6
a 45 57 1
a 57 45 1
a 45 46 6
a 46 45 6
a 46 58 4
a 58 46 4
a 46 47 7
a 47 46 7
a 47 59 1
a 59 47 1
a 47 48 9
a 48 47 9
a 48 60 6
a 60 48 6
a 49 61 3
a 61 49 3
a 49 50 4
a 50 49 4
a 50 62 7
a 62 50 7
a 50 51 1
a 51 50 1
a 51 63 6
a 63 51 6
a 51 52 4
a 52 51 4
a 52 64 10
a 64 52 10
a 52 53 7
a 53 52 7
a 53 65 2
a 65 53 2
a 53 54 3
a 54 53 3
a 54 66 1
a 66 54 1
a 54 55 9
a 55 54 9
a 55 67 7
a 67 55 7
a 55 56 9
a 56 55 9
a 56 68 5
a 68 56 5
a 56 57 9
a 57 56 9
a 57 69 7
a 69 57 7
a 57 58 10
a 58 57 10
a 58 70 2
a 70 58 2
a 58 59 5
a 59 58 5
a 59 71 2
a 71 59 2
a 59 60 5
a 60 59 5
a 60 72 10
a 72 60 10
a 61 73 3
a 73 61 3
a 61 62 7
a 62 61 7
a 62 74 6
a 74 62 6
a 62 63 5
a 63 62 5
a 63 75 10
a 75 63 10
a 63 64 5
a 64 63 5
a 64 76 1
a 76 64 1
a 64 65 2
a 65 64 2
a 65 77 1
a 77 65 1
a 65 66 7
a 66 65 7
a 66 78 7
a 78 66 7
a 66 67 10
a 67 66 10
a 67 79 7
a 79 67 7
a 67 68 6
a 68 67 6
a 68 80 4
a 80 68 4
a 68 69 5
a 69 68 5
a 69 81 10
a 81 69 10
a 69 70 3
a 70 69 3
a 70 82 3
a 82 70 3
a 70 71 6
a 71 70 6
a 71 83 1
a 83 71 1
a 71 72 3
a 72 71 3
a 72 84 10
a 84 72 10
a 73 85 10
a 85 73 10
a 73 74 9
a 74 73 9
a 74 86 1
a 86 74 1
a 74 75 9
a 75 74 9
a 75 87 8
a 87 75 8
a 75 76 7
a 76 75 7
a 76 88 8
a 88 76 8
a 76 77 8
a 77 76 8
a 77 89 8
a 89 77 8
a 77 78 7
a 78 77 7
a 78 90 9
a 90 78 9
a 78 79 8
a 79 78 8
a 79 91 6
a 91 79 6
a 79 80 7
a 80 79 7
a 80 92 1
a 92 80 1
a 80 81 8
a 81 80 8
a 81 93 4
a 93 81 4
a 81 82 5
a 82 81 5
a 82 94 10
a 94 82 10
a 82 83 10
a 83 82 10
a 83 95 10
a 95 83 10
a 83 84 3
a 84 83 3
a 84 96 1
a 96 84 1
a 85 97 4
a 97 85 4
a 85 86 3
a 86 85 3
a 86 98 2
a 98 86 2
a 86 87 2
a 87 86 2
a 87 99 3
a 99 87 3
a 87 88 1
a 88 87 1
a 88 100 3
a 100 88 3
a 88 89 6
a 89 88 6
a 89 101 3
a 101 89 3
a 89 90 8
a 90 89 8
a 90 102 4
a 102 90 4
a 90 91 10
a 91 90 10
a 91 103 9
a 103 91 9
a 91 92 10
a 92 91 10
a 92 104 9
a 104 92 9
a 92 93 9
a 93 92 9
a 93 105 4
a 105 93 4
a 93 94 3
a 94 93 3
a 94 106 3
a 106 94 3
a 94 95 8
a 95 94 8
a 95 107 10
a 107 95 10
a 95 96 6
a 96 95 6
a 96 108 10
a 108 96 10
a 97 109 4
a 109 97 4
a 97 98 1
a 98 97 1
a 98 110 9
a 110 98 9
a 98 99 4
a 99 98 4
a 99 111 7
a 111 99 7
a 99 100 5
a 100 99 5
a 100 112 2
a 112 100 2
a 100 101 5
a 101 100 5
a 101 113 2
a 113 101 2
a 101 102 7
a 102 101 7
a 102 114 6
a 114 102 6
a 102 103 1
a 103 102 1
a 103 115 4
a 115 103 4
a 103 104 10
a 104 103 10
a 104 116 5
a 116 104 5
a 104 105 3
a 105 104 3
a 105 117 4
a 117 105 4
a 105 106 6
a 106 105 6
a 106 118 7
a 118 106 7
a 106 107 8
a 107 106 8
a 107 119 10
a 119 107 10
a 107 108 8
a 108 107 8
a 108 120 2
a 120 108 2
a 109 121 4
a 121 109 4
a 109 110 2
a 110 109 2
a 110 122 7
a 122 110 7
a 110 111 6
a 111 110 6
a 111 123 2
a 123 111 2
a 111 112 7
a 112 111 7
a 112 124 4
a 124 112 4
a 112 113 10
a 113 112 10
a 113 125 1
a 125 113 1
a 113 114 5
a 114 113 5
a 114 126 7
a 126 114 7
a 114 115 2
a 115 114 2
a 115 127 2
a 127 115 2
a 115 116 10
a 116 115 10
a 116 128 8
a 128 116 8
a 116 117 5
a 117 116 5
a 117 129 5
a 129 117 5
a 117 118 1
a 118 117 1
a 118 130 1
a 130 118 1
a 118 119 8
a 119 118 8
a 119 131 5
a 131 119 5
a 119 120 8
a 120 119 8
a 120 132 4
a 132 120 4
a 121 133 2
a 133 121 2
a 121 122 10
a 122 121 10
a 122 134 3
a 134 122 3
a 122 123 1
a 123 122 1
a 123 135 2
a 135 123 2
a 123 124 3
a 124 123 3
a 124 136 2
a 136 124 2
a 124 125 7
a 125 124 7
a 125 137 2
a 137 125 2
a 125 126 9
a 126 125 9
a 126 138 1
a 138 126 1
a 126 127 6
a 127 126 6
a 127 139 3
a 139 127 3
a 127 128 1
a 128 127 1
a 128 140 2
a 140 128 2
a 128 129 4
a 129 128 4
a 129 141 7
a 141 129 7
a 129 130 4
a 130 129 4
a 130 142 2
a 142 130 2
a 130 131 7
a 131 130 7
a 131 143 2
a 143 131 2
a 131 132 7
a 132 131 7
a 132 144 6
a 144 132 6
a 133 134 6
a 134 133 6
a 134 135 8
a 135 134 8
a 135 136 9
a 136 135 9
a 136 137 1
a 137 136 1
a 137 138 1
a 138 137 1
a 138 139 7
a 139 138 7
a 139 140 9
a 140 139 9
a 140 141 9
a 141 140 9
a 141 142 10
a 142 141 10
a 142 143 6
a 143 142 6
a 143 144 1
a 144 143 1
